
Gurobi 7.5.2 (linux64) logging started Sat Jul  7 16:00:49 2018

Changed value of parameter LogFile to result/ilp/simNo_6-n_100-m_40-s_4-minVAF_0.05-cov_10000-k_2-fn_0.15-fp_0.0001-na_0.15.ILP.gurobiSolverLog
   Prev: gurobi.log  Default: 
Changed value of parameter TimeLimit to 86400.0
   Prev: 1e+100  Min: 0.0  Max: 1e+100  Default: 1e+100
Optimize a model with 639293 rows, 10765 columns and 1940420 nonzeros
Variable types: 0 continuous, 10765 integer (10765 binary)
Coefficient statistics:
  Matrix range     [4e-05, 4e+00]
  Objective range  [1e+00, 1e+01]
  Bounds range     [1e+00, 1e+00]
  RHS range        [3e-01, 2e+00]
Found heuristic solution: objective -14715.58556
Presolve removed 132317 rows and 1028 columns (presolve time = 5s) ...
Presolve removed 132900 rows and 1028 columns (presolve time = 13s) ...
Presolve removed 191200 rows and 1611 columns (presolve time = 15s) ...
Presolve removed 191200 rows and 1611 columns
Presolve time: 19.44s
Presolved: 448093 rows, 9154 columns, 1346562 nonzeros
Variable types: 0 continuous, 9154 integer (9154 binary)
Presolved: 9154 rows, 457247 columns, 1355716 nonzeros

Presolve removed 9154 rows and 457247 columns

Root simplex log...

Iteration    Objective       Primal Inf.    Dual Inf.      Time
       0    2.1946163e+01   0.000000e+00   7.378400e+04     23s
   12588   -2.5806137e+02   0.000000e+00   9.562250e+04     25s
   32912   -3.2913685e+02   1.208366e-01   0.000000e+00     30s
   32918   -3.2913685e+02   0.000000e+00   0.000000e+00     30s
   32918   -3.2913685e+02   0.000000e+00   0.000000e+00     31s

Root relaxation: objective -3.291368e+02, 32918 iterations, 10.20 seconds
Total elapsed time = 65.13s
Total elapsed time = 77.87s
Total elapsed time = 98.60s

    Nodes    |    Current Node    |     Objective Bounds      |     Work
 Expl Unexpl |  Obj  Depth IntInf | Incumbent    BestBd   Gap | It/Node Time

     0     0 -329.13685    0 1308 -14715.586 -329.13685  97.8%     -  101s
H    0     0                    -497.1341736 -329.13685  33.8%     -  104s
H    0     0                    -422.2832838 -329.13685  22.1%     -  105s
H    0     0                    -390.6333985 -329.13685  15.7%     -  106s
     0     0 -335.67499    0 1218 -390.63340 -335.67499  14.1%     -  305s
H    0     0                    -381.7306033 -335.67499  12.1%     -  318s
     0     0 -335.67503    0 1350 -381.73060 -335.67503  12.1%     -  320s
     0     0 -340.13812    0 1292 -381.73060 -340.13812  10.9%     - 1002s
H    0     0                    -379.6547799 -340.13812  10.4%     - 1010s
     0     0 -340.37877    0 1287 -379.65478 -340.37877  10.3%     - 1047s
     0     0 -340.59146    0 1288 -379.65478 -340.59146  10.3%     - 1107s
     0     0 -340.73671    0 1288 -379.65478 -340.73671  10.3%     - 1134s
     0     0 -340.89308    0 1289 -379.65478 -340.89308  10.2%     - 1194s
     0     0 -341.03769    0 1321 -379.65478 -341.03769  10.2%     - 1282s
     0     0 -341.04904    0 1294 -379.65478 -341.04904  10.2%     - 1301s
     0     0 -341.05084    0 1294 -379.65478 -341.05084  10.2%     - 1312s
     0     0 -341.05084    0 1294 -379.65478 -341.05084  10.2%     - 1319s
     0     0 -342.10554    0 1411 -379.65478 -342.10554  9.89%     - 1748s
H    0     0                    -376.1381260 -342.10554  9.05%     - 1754s
     0     0 -342.81833    0 1413 -376.13813 -342.81833  8.86%     - 2086s
     0     0 -342.85493    0 1410 -376.13813 -342.85493  8.85%     - 2139s
     0     0 -342.88354    0 1417 -376.13813 -342.88354  8.84%     - 2165s
     0     0 -342.88354    0 1417 -376.13813 -342.88354  8.84%     - 2170s
     0     0 -345.27422    0 1249 -376.13813 -345.27422  8.21%     - 9512s
     0     0 -345.46895    0 1290 -376.13813 -345.46895  8.15%     - 9529s
     0     0 -345.46895    0 1289 -376.13813 -345.46895  8.15%     - 9533s
     0     0 -345.74136    0 1410 -376.13813 -345.74136  8.08%     - 10108s
     0     0 -345.84109    0 1420 -376.13813 -345.84109  8.05%     - 10196s
     0     0 -345.84109    0 1421 -376.13813 -345.84109  8.05%     - 10202s
     0     0 -347.19469    0 1596 -376.13813 -347.19469  7.69%     - 14314s
     0     0 -347.72028    0 1689 -376.13813 -347.72028  7.56%     - 14447s
     0     0 -347.87950    0 1478 -376.13813 -347.87950  7.51%     - 14523s
     0     0 -347.87950    0 1478 -376.13813 -347.87950  7.51%     - 14544s
     0     0 -349.91582    0 1728 -376.13813 -349.91582  6.97%     - 34317s
     0     0 -350.40974    0 1708 -376.13813 -350.40974  6.84%     - 34340s
     0     0 -350.41153    0 1695 -376.13813 -350.41153  6.84%     - 34349s
     0     0 -352.60545    0 1532 -376.13813 -352.60545  6.26%     - 47383s
H    0     0                    -374.3797990 -352.60545  5.82%     - 47388s
     0     0 -352.78905    0 1522 -374.37980 -352.78905  5.77%     - 47395s
     0     0 -352.78905    0 1526 -374.37980 -352.78905  5.77%     - 47400s
     0     0 -353.64622    0 1531 -374.37980 -353.64622  5.54%     - 47462s
     0     0 -353.97311    0 1436 -374.37980 -353.97311  5.45%     - 47644s
     0     0 -353.97311    0 1451 -374.37980 -353.97311  5.45%     - 47654s
     0     0 -354.41820    0 1325 -374.37980 -354.41820  5.33%     - 47782s
H    0     0                    -370.8631451 -354.41820  4.43%     - 47790s
     0     0 -354.91068    0 1407 -370.86315 -354.91068  4.30%     - 49456s
     0     0 -355.08574    0 1499 -370.86315 -355.08574  4.25%     - 49667s
     0     0 -355.14045    0 1599 -370.86315 -355.14045  4.24%     - 49920s
     0     0 -355.15095    0 1600 -370.86315 -355.15095  4.24%     - 49983s
     0     0 -355.15639    0 1600 -370.86315 -355.15639  4.24%     - 50063s
     0     0 -355.15639    0 1601 -370.86315 -355.15639  4.24%     - 50067s
     0     0 -356.35632    0 1366 -370.86315 -356.35632  3.91%     - 57252s
     0     0 -356.50621    0 1333 -370.86315 -356.50621  3.87%     - 57276s
     0     0 -356.76245    0 1050 -370.86315 -356.76245  3.80%     - 57776s
     0     0 -356.76245    0 1055 -370.86315 -356.76245  3.80%     - 57785s
     0     0 -357.05563    0 1250 -370.86315 -357.05563  3.72%     - 62837s
     0     0 -357.26931    0 1289 -370.86315 -357.26931  3.67%     - 63448s
     0     0 -357.29127    0 1299 -370.86315 -357.29127  3.66%     - 63463s
     0     0 -357.29127    0 1301 -370.86315 -357.29127  3.66%     - 63469s
     0     0 -358.36005    0 1389 -370.86315 -358.36005  3.37%     - 79627s
     0     0 -358.64531    0 1560 -370.86315 -358.64531  3.29%     - 80062s
     0     0 -358.80627    0 1482 -370.86315 -358.80627  3.25%     - 80387s
     0     0 -359.07154    0 1351 -370.86315 -359.07154  3.18%     - 81771s
     0     0 -359.07154    0 1354 -370.86315 -359.07154  3.18%     - 81776s
     0     0          -    0      -370.86315 -359.07154  3.18%     - 86400s

Cutting planes:
  Zero half: 209

Explored 1 nodes (2160037 simplex iterations) in 86400.41 seconds
Thread count was 1 (of 80 available processors)

Solution count 9: -370.863 -374.38 -376.138 ... -14715.6

Time limit reached
Best objective -3.708631450799e+02, best bound -3.590715380931e+02, gap 3.1795%
